(set-logic LIA)
(synth-fun findSum  (             ( x1  Int )  ( x2  Int )  ( x3  Int )  ( x4  Int )  ( x5  Int )  ( x6  Int )  ( x7  Int )  ( x8  Int )  ( x9  Int )  ( x10  Int ) )  Int (
			(Start  Int (		x1 x2  x3 x4 x5 x6 x7 x8 x9 x10
	0 1 (+ Start Start) (- Start Start) (ite B Start Start)
))
	(B Bool (		(and B B) (or B B) (not B) (= Start Start) (<= Start Start) (>= Start Start)
))
))


(declare-var x1 Int)
(declare-var x2 Int)
(declare-var x3 Int)
(declare-var x4 Int)
(declare-var x5 Int)
(declare-var x6 Int)
(declare-var x7 Int)
(declare-var x8 Int)
(declare-var x9 Int)
(declare-var x10 Int)
(constraint (=> (> (+ x1 x2) 15) (= (findSum x1 x2 x3 x4 x5 x6 x7 x8 x9 x10 ) (+ x1 x2))))
(constraint (=> (and (<= (+ x1 x2) 15) (> (+ x2 x3) 15)) (= (findSum x1 x2 x3 x4 x5 x6 x7 x8 x9 x10 ) (+ x2 x3))))
(constraint (=> (and (and (<= (+ x1 x2) 15) (<= (+ x2 x3) 15)) (> (+ x3 x4) 15)) (= (findSum x1 x2 x3 x4 x5 x6 x7 x8 x9 x10 ) (+ x3 x4))))
(constraint (=> (and (and (<= (+ x1 x2) 15) (and (<= (+ x2 x3) 15) (<= (+ x3 x4) 15))) (> (+ x4 x5) 15)) (= (findSum x1 x2 x3 x4 x5 x6 x7 x8 x9 x10 ) (+ x4 x5))))
(constraint (=> (and (and (<= (+ x1 x2) 15) (and (<= (+ x2 x3) 15) (and (<= (+ x3 x4) 15) (<= (+ x4 x5) 15)))) (> (+ x5 x6) 15)) (= (findSum x1 x2 x3 x4 x5 x6 x7 x8 x9 x10 ) (+ x5 x6))))
(constraint (=> (and (and (<= (+ x1 x2) 15) (and (<= (+ x2 x3) 15) (and (<= (+ x3 x4) 15) (and (<= (+ x4 x5) 15) (<= (+ x5 x6) 15))))) (> (+ x6 x7) 15)) (= (findSum x1 x2 x3 x4 x5 x6 x7 x8 x9 x10 ) (+ x6 x7))))
(constraint (=> (and (and (<= (+ x1 x2) 15) (and (<= (+ x2 x3) 15) (and (<= (+ x3 x4) 15) (and (<= (+ x4 x5) 15) (and (<= (+ x5 x6) 15) (<= (+ x6 x7) 15)))))) (> (+ x7 x8) 15)) (= (findSum x1 x2 x3 x4 x5 x6 x7 x8 x9 x10 ) (+ x7 x8))))
(constraint (=> (and (and (<= (+ x1 x2) 15) (and (<= (+ x2 x3) 15) (and (<= (+ x3 x4) 15) (and (<= (+ x4 x5) 15) (and (<= (+ x5 x6) 15) (and (<= (+ x6 x7) 15) (<= (+ x7 x8) 15))))))) (> (+ x8 x9) 15)) (= (findSum x1 x2 x3 x4 x5 x6 x7 x8 x9 x10 ) (+ x8 x9))))
(constraint (=> (and (and (<= (+ x1 x2) 15) (and (<= (+ x2 x3) 15) (and (<= (+ x3 x4) 15) (and (<= (+ x4 x5) 15) (and (<= (+ x5 x6) 15) (and (<= (+ x6 x7) 15) (and (<= (+ x7 x8) 15) (<= (+ x8 x9) 15)))))))) (> (+ x9 x10) 15)) (= (findSum x1 x2 x3 x4 x5 x6 x7 x8 x9 x10 ) (+ x9 x10))))
(constraint (=> (and (<= (+ x1 x2) 15) (and (<= (+ x2 x3) 15) (and (<= (+ x3 x4) 15) (and (<= (+ x4 x5) 15) (and (<= (+ x5 x6) 15) (and (<= (+ x6 x7) 15) (and (<= (+ x7 x8) 15) (and (<= (+ x8 x9) 15) (<= (+ x9 x10) 15))))))))) (= (findSum x1 x2 x3 x4 x5 x6 x7 x8 x9 x10 ) 0)))
(check-synth)
